# Solution for model CO2_network_optimization
# Objective value = 1.9429658392680089e+04
arc_flow[TS26,source_5,0] 0
arc_flow[TS26,source_5,1] 0
arc_flow[sink_1,sink_6,0] 0
arc_flow[sink_1,sink_6,1] 0
arc_flow[TS10,sink_10,0] 2.3470600684429521e-01
arc_flow[TS10,sink_10,1] 0
arc_flow[TS33,TS29,0] 0
arc_flow[TS33,TS29,1] 0
arc_flow[TS39,TS37,0] 0
arc_flow[TS39,TS37,1] 0
arc_flow[TS27,TS24,0] 0
arc_flow[TS27,TS24,1] 0
arc_flow[sink_1,TS4,0] 0
arc_flow[sink_1,TS4,1] 0
arc_flow[TS9,TS11,0] 0
arc_flow[TS9,TS11,1] 0
arc_flow[TS38,TS37,0] 0
arc_flow[TS38,TS37,1] 0
arc_flow[TS38,TS30,0] 0
arc_flow[TS38,TS30,1] 0
arc_flow[source_6,source_1,0] 1.0086266519601870e+00
arc_flow[source_6,source_1,1] 0
arc_flow[sink_9,TS29,0] 0
arc_flow[sink_9,TS29,1] 0
arc_flow[TS5,source_8,0] 0
arc_flow[TS5,source_8,1] 0
arc_flow[TS35,source_4,0] 0
arc_flow[TS35,source_4,1] 0
arc_flow[TS25,source_7,0] 0
arc_flow[TS25,source_7,1] 0
arc_flow[TS6,sink_5,0] 0
arc_flow[TS6,sink_5,1] 0
arc_flow[TS24,TS19,0] 0
arc_flow[TS24,TS19,1] 0
arc_flow[TS15,TS16,0] 0
arc_flow[TS15,TS16,1] 0
arc_flow[sink_6,TS2,0] 0
arc_flow[sink_6,TS2,1] 0
arc_flow[TS29,sink_9,0] 0.2454694577784
arc_flow[TS29,sink_9,1] 0
arc_flow[TS14,TS9,0] 0
arc_flow[TS14,TS9,1] 0
arc_flow[TS20,TS21,0] 0
arc_flow[TS20,TS21,1] 0
arc_flow[sink_4,TS5,0] 0
arc_flow[sink_4,TS5,1] 0
arc_flow[TS20,source_1,0] 0
arc_flow[TS20,source_1,1] 0
arc_flow[TS11,TS12,0] 0
arc_flow[TS11,TS12,1] 0
arc_flow[TS17,TS26,0] 0
arc_flow[TS17,TS26,1] 0
arc_flow[TS27,TS13,0] 2.3470600684429521e-01
arc_flow[TS27,TS13,1] 0
arc_flow[sink_8,TS21,0] 0
arc_flow[sink_8,TS21,1] 0
arc_flow[TS13,TS27,0] 0
arc_flow[TS13,TS27,1] 0
arc_flow[TS37,source_1,0] 0
arc_flow[TS37,source_1,1] 0
arc_flow[TS36,TS34,0] 0
arc_flow[TS36,TS34,1] 0
arc_flow[TS23,TS18,0] 0
arc_flow[TS23,TS18,1] 0
arc_flow[sink_7,TS3,0] 2.9998803885930581e-01
arc_flow[sink_7,TS3,1] 0
arc_flow[TS20,TS22,0] 0
arc_flow[TS20,TS22,1] 0
arc_flow[TS1,sink_3,0] 0
arc_flow[TS1,sink_3,1] 0
arc_flow[TS26,TS17,0] 7.6878855446977190e-01
arc_flow[TS26,TS17,1] 0
arc_flow[TS29,sink_2,0] 0
arc_flow[TS29,sink_2,1] 0
arc_flow[source_5,TS8,0] 0
arc_flow[source_5,TS8,1] 0
arc_flow[TS2,TS5,0] 0
arc_flow[TS2,TS5,1] 0
arc_flow[TS15,TS11,0] 5.9676436741865968e-01
arc_flow[TS15,TS11,1] 0
arc_flow[sink_2,TS28,0] 0
arc_flow[sink_2,TS28,1] 0
arc_flow[TS14,sink_8,0] 0
arc_flow[TS14,sink_8,1] 0
arc_flow[TS34,source_6,0] 0
arc_flow[TS34,source_6,1] 0
arc_flow[TS21,source_6,0] 0
arc_flow[TS21,source_6,1] 0
arc_flow[TS10,TS13,0] 0
arc_flow[TS10,TS13,1] 0
arc_flow[TS29,TS33,0] 0
arc_flow[TS29,TS33,1] 0
arc_flow[TS12,TS13,0] 0
arc_flow[TS12,TS13,1] 0
arc_flow[TS3,sink_7,0] 0
arc_flow[TS3,sink_7,1] 0
arc_flow[TS8,TS7,0] 0
arc_flow[TS8,TS7,1] 0
arc_flow[TS26,TS27,0] 2.3470600684429521e-01
arc_flow[TS26,TS27,1] 0
arc_flow[TS22,TS20,0] 0
arc_flow[TS22,TS20,1] 0
arc_flow[TS35,TS32,0] 0
arc_flow[TS35,TS32,1] 0
arc_flow[TS5,TS2,0] 0
arc_flow[TS5,TS2,1] 0
arc_flow[TS39,TS31,0] 4.70901769806
arc_flow[TS39,TS31,1] 0
arc_flow[TS17,TS12,0] 0
arc_flow[TS17,TS12,1] 0
arc_flow[TS27,TS26,0] 0
arc_flow[TS27,TS26,1] 0
arc_flow[TS28,TS23,0] 0
arc_flow[TS28,TS23,1] 0
arc_flow[source_7,TS23,0] 0
arc_flow[source_7,TS23,1] 0
arc_flow[source_7,TS25,0] 6.7396089539001869e+00
arc_flow[source_7,TS25,1] 0
arc_flow[source_6,TS21,0] 2.4766489952099993e-01
arc_flow[source_6,TS21,1] 0
arc_flow[TS37,TS39,0] 2.54901769806
arc_flow[TS37,TS39,1] 0
arc_flow[TS28,TS39,0] 0
arc_flow[TS28,TS39,1] 0
arc_flow[TS1,TS6,0] 0
arc_flow[TS1,TS6,1] 0
arc_flow[TS2,TS3,0] 0
arc_flow[TS2,TS3,1] 0
arc_flow[source_8,TS5,0] 0
arc_flow[source_8,TS5,1] 0
arc_flow[sink_2,TS29,0] 0.2454694577784
arc_flow[sink_2,TS29,1] 0
arc_flow[TS31,TS39,0] 0
arc_flow[TS31,TS39,1] 0
arc_flow[sink_7,TS9,0] 0
arc_flow[sink_7,TS9,1] 0
arc_flow[TS24,TS27,0] 0
arc_flow[TS24,TS27,1] 0
arc_flow[source_4,TS32,0] 0
arc_flow[source_4,TS32,1] 0
arc_flow[TS24,source_7,0] 0
arc_flow[TS24,source_7,1] 0
arc_flow[TS15,TS7,0] 0
arc_flow[TS15,TS7,1] 0
arc_flow[sink_8,TS14,0] 0
arc_flow[sink_8,TS14,1] 0
arc_flow[TS35,TS36,0] 0
arc_flow[TS35,TS36,1] 0
arc_flow[TS22,source_1,0] 0
arc_flow[TS22,source_1,1] 0
arc_flow[TS7,TS8,0] 0
arc_flow[TS7,TS8,1] 0
arc_flow[TS30,source_4,0] 0
arc_flow[TS30,source_4,1] 0
arc_flow[TS32,TS35,0] 0
arc_flow[TS32,TS35,1] 0
arc_flow[TS19,TS10,0] 0
arc_flow[TS19,TS10,1] 0
arc_flow[TS11,TS9,0] 5.9676436741865968e-01
arc_flow[TS11,TS9,1] 0
arc_flow[TS21,TS20,0] 0
arc_flow[TS21,TS20,1] 0
arc_flow[TS37,TS38,0] 0
arc_flow[TS37,TS38,1] 0
arc_flow[sink_3,TS1,0] 5.9330014408714478e+00
arc_flow[sink_3,TS1,1] 0
arc_flow[TS25,sink_3,0] 6.7396089539001869e+00
arc_flow[TS25,sink_3,1] 0
arc_flow[TS39,source_2,0] 0
arc_flow[TS39,source_2,1] 0
arc_flow[TS16,TS17,0] 0
arc_flow[TS16,TS17,1] 0
arc_flow[source_4,TS30,0] 1.26
arc_flow[source_4,TS30,1] 0
arc_flow[source_6,TS34,0] 0
arc_flow[source_6,TS34,1] 0
arc_flow[TS30,TS31,0] 0
arc_flow[TS30,TS31,1] 0
arc_flow[TS28,sink_2,0] 0
arc_flow[TS28,sink_2,1] 0
arc_flow[source_7,sink_2,0] 0
arc_flow[source_7,sink_2,1] 0
arc_flow[source_7,sink_5,0] 0
arc_flow[source_7,sink_5,1] 0
arc_flow[TS18,source_3,0] 0
arc_flow[TS18,source_3,1] 0
arc_flow[TS10,TS19,0] 0
arc_flow[TS10,TS19,1] 0
arc_flow[TS22,source_3,0] 2.7796089539000652e+00
arc_flow[TS22,source_3,1] 0
arc_flow[TS4,sink_4,0] 0
arc_flow[TS4,sink_4,1] 0
arc_flow[sink_2,TS31,0] 0
arc_flow[sink_2,TS31,1] 0
arc_flow[source_8,TS4,0] 8.0033189246182346e-01
arc_flow[source_8,TS4,1] 0
arc_flow[TS31,sink_2,0] 4.70901769806
arc_flow[TS31,sink_2,1] 0
arc_flow[source_3,TS22,0] 0
arc_flow[source_3,TS22,1] 0
arc_flow[sink_3,TS25,0] 0
arc_flow[sink_3,TS25,1] 0
arc_flow[TS36,TS35,0] 0
arc_flow[TS36,TS35,1] 0
arc_flow[TS13,TS10,0] 2.3470600684429521e-01
arc_flow[TS13,TS10,1] 0
arc_flow[TS23,source_7,0] 4.2196089539001873e+00
arc_flow[TS23,source_7,1] 0
arc_flow[TS18,TS23,0] 4.2196089539001873e+00
arc_flow[TS18,TS23,1] 0
arc_flow[sink_4,TS4,0] 0
arc_flow[sink_4,TS4,1] 0
arc_flow[sink_2,TS25,0] 0
arc_flow[sink_2,TS25,1] 0
arc_flow[TS4,source_8,0] 0
arc_flow[TS4,source_8,1] 0
arc_flow[TS23,TS28,0] 0
arc_flow[TS23,TS28,1] 0
arc_flow[sink_10,TS10,0] 0
arc_flow[sink_10,TS10,1] 0
arc_flow[source_8,sink_4,0] 4.5966810753817650e-01
arc_flow[source_8,sink_4,1] 0
arc_flow[sink_5,sink_3,0] 0
arc_flow[sink_5,sink_3,1] 0
arc_flow[TS2,sink_6,0] 2.9998803885904041e-01
arc_flow[TS2,sink_6,1] 0
arc_flow[TS33,TS32,0] 0
arc_flow[TS33,TS32,1] 0
arc_flow[source_2,TS39,0] 2.16
arc_flow[source_2,TS39,1] 0
arc_flow[TS8,source_5,0] 0
arc_flow[TS8,source_5,1] 0
arc_flow[sink_6,sink_1,0] 0
arc_flow[sink_6,sink_1,1] 0
arc_flow[TS11,TS15,0] 0
arc_flow[TS11,TS15,1] 0
arc_flow[TS9,TS14,0] 0
arc_flow[TS9,TS14,1] 0
arc_flow[sink_3,sink_9,0] 0
arc_flow[sink_3,sink_9,1] 0
arc_flow[source_3,TS18,0] 4.2196089539000656e+00
arc_flow[source_3,TS18,1] 0
arc_flow[TS25,sink_2,0] 0
arc_flow[TS25,sink_2,1] 0
arc_flow[source_1,TS37,0] 2.54901769806
arc_flow[source_1,TS37,1] 0
arc_flow[TS18,TS19,0] 0
arc_flow[TS18,TS19,1] 0
arc_flow[source_1,TS20,0] 0
arc_flow[source_1,TS20,1] 0
arc_flow[TS13,TS12,0] 0
arc_flow[TS13,TS12,1] 0
arc_flow[TS17,TS16,0] 7.6878855446986627e-01
arc_flow[TS17,TS16,1] 0
arc_flow[TS30,TS38,0] 1.2599999999999429e+00
arc_flow[TS30,TS38,1] 0
arc_flow[TS8,sink_5,0] 0
arc_flow[TS8,sink_5,1] 0
arc_flow[source_4,TS35,0] 0
arc_flow[source_4,TS35,1] 0
arc_flow[sink_1,sink_9,0] 0
arc_flow[sink_1,sink_9,1] 0
arc_flow[source_1,source_6,0] 0
arc_flow[source_1,source_6,1] 0
arc_flow[TS19,TS18,0] 0
arc_flow[TS19,TS18,1] 0
arc_flow[sink_3,sink_5,0] 3.2349712041720025e-01
arc_flow[sink_3,sink_5,1] 0
arc_flow[source_2,TS38,0] 0
arc_flow[source_2,TS38,1] 0
arc_flow[TS14,TS10,0] 0
arc_flow[TS14,TS10,1] 0
arc_flow[TS12,TS17,0] 0
arc_flow[TS12,TS17,1] 0
arc_flow[TS7,TS15,0] 0
arc_flow[TS7,TS15,1] 0
arc_flow[sink_5,TS6,0] 0
arc_flow[sink_5,TS6,1] 0
arc_flow[TS38,source_2,0] 1.26
arc_flow[TS38,source_2,1] 0
arc_flow[source_7,TS24,0] 0
arc_flow[source_7,TS24,1] 0
arc_flow[TS16,TS15,0] 5.9676436741865968e-01
arc_flow[TS16,TS15,1] 0
arc_flow[TS16,sink_11,0] 1.7202418705120834e-01
arc_flow[TS16,sink_11,1] 0
arc_flow[TS5,sink_4,0] 0
arc_flow[TS5,sink_4,1] 0
arc_flow[sink_1,TS1,0] 0
arc_flow[sink_1,TS1,1] 0
arc_flow[TS31,TS30,0] 0
arc_flow[TS31,TS30,1] 0
arc_flow[TS4,sink_1,0] 8.0033189246186476e-01
arc_flow[TS4,sink_1,1] 0
arc_flow[sink_9,sink_1,0] 0
arc_flow[sink_9,sink_1,1] 0
arc_flow[TS10,TS14,0] 0
arc_flow[TS10,TS14,1] 0
arc_flow[TS3,TS2,0] 2.9998803885919695e-01
arc_flow[TS3,TS2,1] 0
arc_flow[source_1,TS22,0] 2.7796089539001869e+00
arc_flow[source_1,TS22,1] 0
arc_flow[sink_5,TS8,0] 0
arc_flow[sink_5,TS8,1] 0
arc_flow[TS6,TS1,0] 0
arc_flow[TS6,TS1,1] 0
arc_flow[TS6,TS3,0] 0
arc_flow[TS6,TS3,1] 0
arc_flow[TS1,sink_1,0] 5.9330014408714682e+00
arc_flow[TS1,sink_1,1] 0
arc_flow[TS19,TS24,0] 0
arc_flow[TS19,TS24,1] 0
arc_flow[source_5,TS26,0] 1.0034945613140671e+00
arc_flow[source_5,TS26,1] 0
arc_flow[TS7,sink_7,0] 0
arc_flow[TS7,sink_7,1] 0
arc_flow[sink_2,source_7,0] 0
arc_flow[sink_2,source_7,1] 0
arc_flow[sink_4,source_8,0] 0
arc_flow[sink_4,source_8,1] 0
arc_flow[TS3,TS6,0] 0
arc_flow[TS3,TS6,1] 0
arc_flow[sink_5,source_7,0] 0
arc_flow[sink_5,source_7,1] 0
arc_flow[sink_11,TS16,0] 0
arc_flow[sink_11,TS16,1] 0
arc_flow[TS32,source_4,0] 0
arc_flow[TS32,source_4,1] 0
arc_flow[TS34,TS36,0] 0
arc_flow[TS34,TS36,1] 0
arc_flow[TS21,sink_8,0] 2.4766489952099993e-01
arc_flow[TS21,sink_8,1] 0
arc_flow[TS39,TS28,0] 0
arc_flow[TS39,TS28,1] 0
arc_flow[TS12,TS11,0] 0
arc_flow[TS12,TS11,1] 0
arc_flow[TS9,sink_7,0] 5.9676436741865968e-01
arc_flow[TS9,sink_7,1] 0
arc_flow[sink_9,sink_3,0] 0
arc_flow[sink_9,sink_3,1] 0
arc_flow[sink_7,TS7,0] 0
arc_flow[sink_7,TS7,1] 0
arc_flow[TS32,TS33,0] 0
arc_flow[TS32,TS33,1] 0
CO2_captured[source_2] 0.9
CO2_captured[source_1] 4.32
CO2_captured[source_5] 1.0034945613140671e+00
CO2_captured[source_3] 1.4400000000000002e+00
CO2_captured[source_4] 1.26
CO2_captured[source_7] 2.5199999999999996e+00
CO2_captured[source_8] 1.26
CO2_captured[source_6] 1.2562915514812838e+00
CO2_injected[sink_11] 5.16072561153625
CO2_injected[sink_8] 7.4299469856299982e+00
CO2_injected[sink_5] 9.7049136125159983e+00
CO2_injected[sink_7] 8.9032898567806171e+00
CO2_injected[sink_4] 1.3790043226144796e+01
CO2_injected[sink_3] 1.4493311778339121e+01
CO2_injected[sink_6] 8.9996411657695
CO2_injected[sink_2] 1.3390644720844801e+02
CO2_injected[sink_9] 7.364083733352
CO2_injected[sink_10] 7.0411802053288568e+00
CO2_injected[sink_1] 202
arc_built[TS26,source_5,0] 0
arc_built[TS26,source_5,1] 0
arc_built[sink_1,sink_6,0] 0
arc_built[sink_1,sink_6,1] 0
arc_built[TS10,sink_10,0] 1
arc_built[TS10,sink_10,1] 0
arc_built[TS33,TS29,0] 0
arc_built[TS33,TS29,1] 0
arc_built[TS39,TS37,0] 0
arc_built[TS39,TS37,1] 0
arc_built[TS27,TS24,0] 0
arc_built[TS27,TS24,1] 0
arc_built[sink_1,TS4,0] 0
arc_built[sink_1,TS4,1] 0
arc_built[TS9,TS11,0] 0
arc_built[TS9,TS11,1] 0
arc_built[TS38,TS37,0] 0
arc_built[TS38,TS37,1] 0
arc_built[TS38,TS30,0] 0
arc_built[TS38,TS30,1] 0
arc_built[source_6,source_1,0] 1
arc_built[source_6,source_1,1] 0
arc_built[sink_9,TS29,0] 0
arc_built[sink_9,TS29,1] 0
arc_built[TS5,source_8,0] 0
arc_built[TS5,source_8,1] 0
arc_built[TS35,source_4,0] 0
arc_built[TS35,source_4,1] 0
arc_built[TS25,source_7,0] 0
arc_built[TS25,source_7,1] 0
arc_built[TS6,sink_5,0] 0
arc_built[TS6,sink_5,1] 0
arc_built[TS24,TS19,0] 0
arc_built[TS24,TS19,1] 0
arc_built[TS15,TS16,0] 0
arc_built[TS15,TS16,1] 0
arc_built[sink_6,TS2,0] 0
arc_built[sink_6,TS2,1] 0
arc_built[TS29,sink_9,0] 1
arc_built[TS29,sink_9,1] 0
arc_built[TS14,TS9,0] 0
arc_built[TS14,TS9,1] 0
arc_built[TS20,TS21,0] 0
arc_built[TS20,TS21,1] 0
arc_built[sink_4,TS5,0] 0
arc_built[sink_4,TS5,1] 0
arc_built[TS20,source_1,0] 0
arc_built[TS20,source_1,1] 0
arc_built[TS11,TS12,0] 0
arc_built[TS11,TS12,1] 0
arc_built[TS17,TS26,0] 0
arc_built[TS17,TS26,1] 0
arc_built[TS27,TS13,0] 1
arc_built[TS27,TS13,1] 0
arc_built[sink_8,TS21,0] 0
arc_built[sink_8,TS21,1] 0
arc_built[TS13,TS27,0] 0
arc_built[TS13,TS27,1] 0
arc_built[TS37,source_1,0] 0
arc_built[TS37,source_1,1] 0
arc_built[TS36,TS34,0] 0
arc_built[TS36,TS34,1] 0
arc_built[TS23,TS18,0] 0
arc_built[TS23,TS18,1] 0
arc_built[sink_7,TS3,0] 1
arc_built[sink_7,TS3,1] 0
arc_built[TS20,TS22,0] 0
arc_built[TS20,TS22,1] 0
arc_built[TS1,sink_3,0] 0
arc_built[TS1,sink_3,1] 0
arc_built[TS26,TS17,0] 1
arc_built[TS26,TS17,1] 0
arc_built[TS29,sink_2,0] 0
arc_built[TS29,sink_2,1] 0
arc_built[source_5,TS8,0] 0
arc_built[source_5,TS8,1] 0
arc_built[TS2,TS5,0] 0
arc_built[TS2,TS5,1] 0
arc_built[TS15,TS11,0] 1
arc_built[TS15,TS11,1] 0
arc_built[sink_2,TS28,0] 0
arc_built[sink_2,TS28,1] 0
arc_built[TS14,sink_8,0] 0
arc_built[TS14,sink_8,1] 0
arc_built[TS34,source_6,0] 0
arc_built[TS34,source_6,1] 0
arc_built[TS21,source_6,0] 0
arc_built[TS21,source_6,1] 0
arc_built[TS10,TS13,0] 0
arc_built[TS10,TS13,1] 0
arc_built[TS29,TS33,0] 0
arc_built[TS29,TS33,1] 0
arc_built[TS12,TS13,0] 0
arc_built[TS12,TS13,1] 0
arc_built[TS3,sink_7,0] 0
arc_built[TS3,sink_7,1] 0
arc_built[TS8,TS7,0] 0
arc_built[TS8,TS7,1] 0
arc_built[TS26,TS27,0] 1
arc_built[TS26,TS27,1] 0
arc_built[TS22,TS20,0] 0
arc_built[TS22,TS20,1] 0
arc_built[TS35,TS32,0] 0
arc_built[TS35,TS32,1] 0
arc_built[TS5,TS2,0] 0
arc_built[TS5,TS2,1] 0
arc_built[TS39,TS31,0] 1
arc_built[TS39,TS31,1] 0
arc_built[TS17,TS12,0] 0
arc_built[TS17,TS12,1] 0
arc_built[TS27,TS26,0] 0
arc_built[TS27,TS26,1] 0
arc_built[TS28,TS23,0] 0
arc_built[TS28,TS23,1] 0
arc_built[source_7,TS23,0] 0
arc_built[source_7,TS23,1] 0
arc_built[source_7,TS25,0] 1
arc_built[source_7,TS25,1] 0
arc_built[source_6,TS21,0] 1
arc_built[source_6,TS21,1] 0
arc_built[TS37,TS39,0] 1
arc_built[TS37,TS39,1] 0
arc_built[TS28,TS39,0] 0
arc_built[TS28,TS39,1] 0
arc_built[TS1,TS6,0] 0
arc_built[TS1,TS6,1] 0
arc_built[TS2,TS3,0] 0
arc_built[TS2,TS3,1] 0
arc_built[source_8,TS5,0] 0
arc_built[source_8,TS5,1] 0
arc_built[sink_2,TS29,0] 1
arc_built[sink_2,TS29,1] 0
arc_built[TS31,TS39,0] 0
arc_built[TS31,TS39,1] 0
arc_built[sink_7,TS9,0] 0
arc_built[sink_7,TS9,1] 0
arc_built[TS24,TS27,0] 0
arc_built[TS24,TS27,1] 0
arc_built[source_4,TS32,0] 0
arc_built[source_4,TS32,1] 0
arc_built[TS24,source_7,0] 0
arc_built[TS24,source_7,1] 0
arc_built[TS15,TS7,0] 0
arc_built[TS15,TS7,1] 0
arc_built[sink_8,TS14,0] 0
arc_built[sink_8,TS14,1] 0
arc_built[TS35,TS36,0] 0
arc_built[TS35,TS36,1] 0
arc_built[TS22,source_1,0] 0
arc_built[TS22,source_1,1] 0
arc_built[TS7,TS8,0] 0
arc_built[TS7,TS8,1] 0
arc_built[TS30,source_4,0] 0
arc_built[TS30,source_4,1] 0
arc_built[TS32,TS35,0] 0
arc_built[TS32,TS35,1] 0
arc_built[TS19,TS10,0] 0
arc_built[TS19,TS10,1] 0
arc_built[TS11,TS9,0] 1
arc_built[TS11,TS9,1] 0
arc_built[TS21,TS20,0] 0
arc_built[TS21,TS20,1] 0
arc_built[TS37,TS38,0] 0
arc_built[TS37,TS38,1] 0
arc_built[sink_3,TS1,0] 1
arc_built[sink_3,TS1,1] 0
arc_built[TS25,sink_3,0] 1
arc_built[TS25,sink_3,1] 0
arc_built[TS39,source_2,0] 0
arc_built[TS39,source_2,1] 0
arc_built[TS16,TS17,0] 0
arc_built[TS16,TS17,1] 0
arc_built[source_4,TS30,0] 1
arc_built[source_4,TS30,1] 0
arc_built[source_6,TS34,0] 0
arc_built[source_6,TS34,1] 0
arc_built[TS30,TS31,0] 0
arc_built[TS30,TS31,1] 0
arc_built[TS28,sink_2,0] 0
arc_built[TS28,sink_2,1] 0
arc_built[source_7,sink_2,0] 0
arc_built[source_7,sink_2,1] 0
arc_built[source_7,sink_5,0] 0
arc_built[source_7,sink_5,1] 0
arc_built[TS18,source_3,0] 0
arc_built[TS18,source_3,1] 0
arc_built[TS10,TS19,0] 0
arc_built[TS10,TS19,1] 0
arc_built[TS22,source_3,0] 1
arc_built[TS22,source_3,1] 0
arc_built[TS4,sink_4,0] 0
arc_built[TS4,sink_4,1] 0
arc_built[sink_2,TS31,0] 0
arc_built[sink_2,TS31,1] 0
arc_built[source_8,TS4,0] 1
arc_built[source_8,TS4,1] 0
arc_built[TS31,sink_2,0] 1
arc_built[TS31,sink_2,1] 0
arc_built[source_3,TS22,0] 0
arc_built[source_3,TS22,1] 0
arc_built[sink_3,TS25,0] 0
arc_built[sink_3,TS25,1] 0
arc_built[TS36,TS35,0] 0
arc_built[TS36,TS35,1] 0
arc_built[TS13,TS10,0] 1
arc_built[TS13,TS10,1] 0
arc_built[TS23,source_7,0] 1
arc_built[TS23,source_7,1] 0
arc_built[TS18,TS23,0] 1
arc_built[TS18,TS23,1] 0
arc_built[sink_4,TS4,0] 0
arc_built[sink_4,TS4,1] 0
arc_built[sink_2,TS25,0] 0
arc_built[sink_2,TS25,1] 0
arc_built[TS4,source_8,0] 0
arc_built[TS4,source_8,1] 0
arc_built[TS23,TS28,0] 0
arc_built[TS23,TS28,1] 0
arc_built[sink_10,TS10,0] 0
arc_built[sink_10,TS10,1] 0
arc_built[source_8,sink_4,0] 1
arc_built[source_8,sink_4,1] 0
arc_built[sink_5,sink_3,0] 0
arc_built[sink_5,sink_3,1] 0
arc_built[TS2,sink_6,0] 1
arc_built[TS2,sink_6,1] 0
arc_built[TS33,TS32,0] 0
arc_built[TS33,TS32,1] 0
arc_built[source_2,TS39,0] 1
arc_built[source_2,TS39,1] 0
arc_built[TS8,source_5,0] 0
arc_built[TS8,source_5,1] 0
arc_built[sink_6,sink_1,0] 0
arc_built[sink_6,sink_1,1] 0
arc_built[TS11,TS15,0] 0
arc_built[TS11,TS15,1] 0
arc_built[TS9,TS14,0] 0
arc_built[TS9,TS14,1] 0
arc_built[sink_3,sink_9,0] 0
arc_built[sink_3,sink_9,1] 0
arc_built[source_3,TS18,0] 1
arc_built[source_3,TS18,1] 0
arc_built[TS25,sink_2,0] 0
arc_built[TS25,sink_2,1] 0
arc_built[source_1,TS37,0] 1
arc_built[source_1,TS37,1] 0
arc_built[TS18,TS19,0] 0
arc_built[TS18,TS19,1] 0
arc_built[source_1,TS20,0] 0
arc_built[source_1,TS20,1] 0
arc_built[TS13,TS12,0] 0
arc_built[TS13,TS12,1] 0
arc_built[TS17,TS16,0] 1
arc_built[TS17,TS16,1] 0
arc_built[TS30,TS38,0] 1
arc_built[TS30,TS38,1] 0
arc_built[TS8,sink_5,0] 0
arc_built[TS8,sink_5,1] 0
arc_built[source_4,TS35,0] 0
arc_built[source_4,TS35,1] 0
arc_built[sink_1,sink_9,0] 0
arc_built[sink_1,sink_9,1] 0
arc_built[source_1,source_6,0] 0
arc_built[source_1,source_6,1] 0
arc_built[TS19,TS18,0] 0
arc_built[TS19,TS18,1] 0
arc_built[sink_3,sink_5,0] 1
arc_built[sink_3,sink_5,1] 0
arc_built[source_2,TS38,0] 0
arc_built[source_2,TS38,1] 0
arc_built[TS14,TS10,0] 0
arc_built[TS14,TS10,1] 0
arc_built[TS12,TS17,0] 0
arc_built[TS12,TS17,1] 0
arc_built[TS7,TS15,0] 0
arc_built[TS7,TS15,1] 0
arc_built[sink_5,TS6,0] 0
arc_built[sink_5,TS6,1] 0
arc_built[TS38,source_2,0] 1
arc_built[TS38,source_2,1] 0
arc_built[source_7,TS24,0] 0
arc_built[source_7,TS24,1] 0
arc_built[TS16,TS15,0] 1
arc_built[TS16,TS15,1] 0
arc_built[TS16,sink_11,0] 1
arc_built[TS16,sink_11,1] 0
arc_built[TS5,sink_4,0] 0
arc_built[TS5,sink_4,1] 0
arc_built[sink_1,TS1,0] 0
arc_built[sink_1,TS1,1] 0
arc_built[TS31,TS30,0] 0
arc_built[TS31,TS30,1] 0
arc_built[TS4,sink_1,0] 1
arc_built[TS4,sink_1,1] 0
arc_built[sink_9,sink_1,0] 0
arc_built[sink_9,sink_1,1] 0
arc_built[TS10,TS14,0] 0
arc_built[TS10,TS14,1] 0
arc_built[TS3,TS2,0] 1
arc_built[TS3,TS2,1] 0
arc_built[source_1,TS22,0] 1
arc_built[source_1,TS22,1] 0
arc_built[sink_5,TS8,0] 0
arc_built[sink_5,TS8,1] 0
arc_built[TS6,TS1,0] 0
arc_built[TS6,TS1,1] 0
arc_built[TS6,TS3,0] 0
arc_built[TS6,TS3,1] 0
arc_built[TS1,sink_1,0] 1
arc_built[TS1,sink_1,1] 0
arc_built[TS19,TS24,0] 0
arc_built[TS19,TS24,1] 0
arc_built[source_5,TS26,0] 1
arc_built[source_5,TS26,1] 0
arc_built[TS7,sink_7,0] 0
arc_built[TS7,sink_7,1] 0
arc_built[sink_2,source_7,0] 0
arc_built[sink_2,source_7,1] 0
arc_built[sink_4,source_8,0] 0
arc_built[sink_4,source_8,1] 0
arc_built[TS3,TS6,0] 0
arc_built[TS3,TS6,1] 0
arc_built[sink_5,source_7,0] 0
arc_built[sink_5,source_7,1] 0
arc_built[sink_11,TS16,0] 0
arc_built[sink_11,TS16,1] 0
arc_built[TS32,source_4,0] 0
arc_built[TS32,source_4,1] 0
arc_built[TS34,TS36,0] 0
arc_built[TS34,TS36,1] 0
arc_built[TS21,sink_8,0] 1
arc_built[TS21,sink_8,1] 0
arc_built[TS39,TS28,0] 0
arc_built[TS39,TS28,1] 0
arc_built[TS12,TS11,0] 0
arc_built[TS12,TS11,1] 0
arc_built[TS9,sink_7,0] 1
arc_built[TS9,sink_7,1] 0
arc_built[sink_9,sink_3,0] 0
arc_built[sink_9,sink_3,1] 0
arc_built[sink_7,TS7,0] 0
arc_built[sink_7,TS7,1] 0
arc_built[TS32,TS33,0] 0
arc_built[TS32,TS33,1] 0
src_opened[source_2] 1
src_opened[source_1] 1
src_opened[source_5] 1
src_opened[source_3] 1
src_opened[source_4] 1
src_opened[source_7] 1
src_opened[source_8] 1
src_opened[source_6] 1
sink_opened[sink_11] 1
sink_opened[sink_8] 1
sink_opened[sink_5] 1
sink_opened[sink_7] 1
sink_opened[sink_4] 1
sink_opened[sink_3] 1
sink_opened[sink_6] 1
sink_opened[sink_2] 1
sink_opened[sink_9] 1
sink_opened[sink_10] 1
sink_opened[sink_1] 1
